(set-info :smt-lib-version 2.6)
(set-logic LIA)
(set-info
  :source |
 Generated by PSyCO 0.1
 More info in N. P. Lopes and J. Monteiro. Weakest Precondition Synthesis for
 Compiler Optimizations, VMCAI'14.
|)
(set-info :category "industrial")
(set-info :status sat)
(declare-fun W_S1_V4 () Bool)
(declare-fun W_S1_V2 () Bool)
(declare-fun W_S1_V1 () Bool)
(declare-fun R_S1_V4 () Bool)
(declare-fun R_S1_V2 () Bool)
(declare-fun R_S1_V3 () Bool)
(declare-fun R_S1_V1 () Bool)
(declare-fun DISJ_W_S1_R_S1 () Bool)
(declare-fun W_S1_V3 () Bool)
(assert
 (let
 (($x2093
   (forall
    ((V1_0 Int) (V3_0 Int) 
     (V2_0 Int) (V4_0 Int) 
     (MW_S1_V1 Bool) (MW_S1_V3 Bool) 
     (MW_S1_V2 Bool) (MW_S1_V4 Bool) 
     (S1_V3_!137 Int) (S1_V3_!141 Int) 
     (S1_V3_!145 Int) (S1_V3_!149 Int) 
     (S1_V4_!139 Int) (S1_V4_!143 Int) 
     (S1_V4_!147 Int) (S1_V4_!151 Int) 
     (S1_V1_!136 Int) (S1_V1_!140 Int) 
     (S1_V1_!144 Int) (S1_V1_!148 Int) 
     (S1_V2_!138 Int) (S1_V2_!142 Int) 
     (S1_V2_!146 Int) (S1_V2_!150 Int))
    (let
    ((?x1891 (ite MW_S1_V1 S1_V1_!144 (+ 1 (ite MW_S1_V1 S1_V1_!140 V1_0)))))
    (let ((?x1459 (+ 1 ?x1891)))
    (let
    (($x2086
      (and
      (= (ite MW_S1_V1 S1_V1_!136 V1_0) (ite MW_S1_V1 S1_V1_!148 ?x1459))
      (= (ite MW_S1_V3 S1_V3_!137 V3_0) (ite MW_S1_V3 S1_V3_!149 V3_0))
      (= (ite MW_S1_V2 S1_V2_!138 V2_0) (ite MW_S1_V2 S1_V2_!150 V2_0))
      (= (ite MW_S1_V4 S1_V4_!139 V4_0) (ite MW_S1_V4 S1_V4_!151 V4_0)))))
    (let
    (($x1426
      (and (not (<= V2_0 V1_0))
      (>= (ite MW_S1_V1 S1_V1_!136 V1_0)
      (+ (- 1) (ite MW_S1_V2 S1_V2_!138 V2_0))) 
      (not (<= V2_0 (+ 1 V1_0)))
      (>= ?x1891 (+ (- 2) (ite MW_S1_V2 S1_V2_!146 V2_0)))
      (not (<= (ite MW_S1_V2 S1_V2_!146 V2_0) ?x1459)))))
    (let
    (($x2062
      (and (or (not R_S1_V1) (= ?x1891 (ite MW_S1_V1 S1_V1_!140 V1_0)))
      (or (not R_S1_V3)
      (= (ite MW_S1_V3 S1_V3_!145 V3_0) (ite MW_S1_V3 S1_V3_!141 V3_0)))
      (or (not R_S1_V2)
      (= (ite MW_S1_V2 S1_V2_!146 V2_0) (ite MW_S1_V2 S1_V2_!142 V2_0)))
      (or (not R_S1_V4)
      (= (ite MW_S1_V4 S1_V4_!147 V4_0) (ite MW_S1_V4 S1_V4_!143 V4_0))))))
    (let (($x2063 (not $x2062)))
    (let
    (($x2051
      (and (or (not R_S1_V1) (= ?x1891 (+ (- 1) V1_0)))
      (or (not R_S1_V3) (= (ite MW_S1_V3 S1_V3_!145 V3_0) V3_0))
      (or (not R_S1_V2) (= (ite MW_S1_V2 S1_V2_!146 V2_0) V2_0))
      (or (not R_S1_V4) (= (ite MW_S1_V4 S1_V4_!147 V4_0) V4_0)))))
    (let (($x2052 (not $x2051)))
    (let
    (($x1958
      (and (or (not R_S1_V1) (= V1_0 (+ 1 (ite MW_S1_V1 S1_V1_!140 V1_0))))
      (or (not R_S1_V3) (= V3_0 (ite MW_S1_V3 S1_V3_!141 V3_0)))
      (or (not R_S1_V2) (= V2_0 (ite MW_S1_V2 S1_V2_!142 V2_0)))
      (or (not R_S1_V4) (= V4_0 (ite MW_S1_V4 S1_V4_!143 V4_0))))))
    (let (($x1959 (not $x1958)))
    (let
    (($x2040
      (and (or (not R_S1_V1) (= V1_0 ?x1459))
      (or (not R_S1_V3) (= V3_0 (ite MW_S1_V3 S1_V3_!145 V3_0)))
      (or (not R_S1_V2) (= V2_0 (ite MW_S1_V2 S1_V2_!146 V2_0)))
      (or (not R_S1_V4) (= V4_0 (ite MW_S1_V4 S1_V4_!147 V4_0))))))
    (let (($x2041 (not $x2040)))
    (let
    (($x2075
      (and (or (not R_S1_V1) (= (ite MW_S1_V1 S1_V1_!140 V1_0) ?x1891))
      (or (not R_S1_V3)
      (= (ite MW_S1_V3 S1_V3_!141 V3_0) (ite MW_S1_V3 S1_V3_!145 V3_0)))
      (or (not R_S1_V2)
      (= (ite MW_S1_V2 S1_V2_!142 V2_0) (ite MW_S1_V2 S1_V2_!146 V2_0)))
      (or (not R_S1_V4)
      (= (ite MW_S1_V4 S1_V4_!143 V4_0) (ite MW_S1_V4 S1_V4_!147 V4_0))))))
    (let
    (($x2021
      (and
      (or (not R_S1_V1) (= (ite MW_S1_V1 S1_V1_!140 V1_0) (+ (- 1) V1_0)))
      (or (not R_S1_V3) (= (ite MW_S1_V3 S1_V3_!141 V3_0) V3_0))
      (or (not R_S1_V2) (= (ite MW_S1_V2 S1_V2_!142 V2_0) V2_0))
      (or (not R_S1_V4) (= (ite MW_S1_V4 S1_V4_!143 V4_0) V4_0)))))
    (let
    (($x2090
      (and (= S1_V3_!141 S1_V3_!137) 
      (or $x1959 (= S1_V3_!141 S1_V3_!145))
      (or $x2041 (= S1_V3_!141 S1_V3_!149))
      (or (not $x2021) (= S1_V3_!145 S1_V3_!137))
      (or $x2052 (= S1_V3_!149 S1_V3_!137))
      (or $x2063 (= S1_V3_!149 S1_V3_!145))
      (or $x1959 (= S1_V4_!139 S1_V4_!147))
      (or $x2041 (= S1_V4_!139 S1_V4_!151)) 
      (= S1_V4_!143 S1_V4_!139) 
      (or $x1959 (= S1_V4_!143 S1_V4_!147))
      (or $x2041 (= S1_V4_!143 S1_V4_!151))
      (or (not $x2075) (= S1_V4_!147 S1_V4_!151)) 
      (= S1_V1_!136 S1_V1_!140) 
      (or $x1959 (= S1_V1_!136 S1_V1_!144))
      (or $x2041 (= S1_V1_!136 S1_V1_!148))
      (or $x1959 (= S1_V1_!140 S1_V1_!144))
      (or $x2041 (= S1_V1_!140 S1_V1_!148))
      (or $x2063 (= S1_V1_!148 S1_V1_!144))
      (or $x1959 (= S1_V2_!138 S1_V2_!146)) 
      (= S1_V2_!142 S1_V2_!138) 
      (or $x1959 (= S1_V2_!142 S1_V2_!146))
      (or $x2052 (= S1_V2_!150 S1_V2_!138))
      (or $x2052 (= S1_V2_!150 S1_V2_!142))
      (or $x2063 (= S1_V2_!150 S1_V2_!146)) 
      (or (not MW_S1_V1) W_S1_V1) 
      (or (not MW_S1_V2) W_S1_V2) 
      (or (not MW_S1_V4) W_S1_V4)))) 
    (or (not $x2090) (not $x1426) $x2086)))))))))))))))))))
 (let
 (($x25
   (or (and W_S1_V1 R_S1_V1) R_S1_V3 
   (and W_S1_V2 R_S1_V2) (and W_S1_V4 R_S1_V4))))
 (let (($x27 (= DISJ_W_S1_R_S1 (not $x25)))) (and W_S1_V3 $x27 $x2093)))))
(check-sat)
(exit)

